NAME : portcgen-20-80
COMMENT : portcgen N=20, seed=80
TYPE : TSP
DIMENSION : 20
EDGE_WEIGHT_TYPE : EUC_2D
NODE_COORD_SECTION
1 65 98
2 62 60
3 76 67
4 81 53
5 76 71
6 75 90
7 72 94
8 60 79
9 60 43
10 62 95
11 91 89
12 104 98
13 58 84
14 82 108
15 72 69
16 96 63
17 72 75
18 56 58
19 53 60
20 98 92
